param n := 120;
param c := 1000;
param : V : p w :=
   0	 383	 373
   1	 277	 267
   2	 370	 360
   3	 442	 432
   4	 289	 279
   5	 299	 289
   6	 472	 462
   7	 273	 263
   8	 285	 275
   9	 490	 480
  10	 264	 254
  11	 276	 266
  12	 498	 488
  13	 262	 252
  14	 270	 260
  15	 494	 484
  16	 265	 255
  17	 271	 261
  18	 424	 414
  19	 275	 265
  20	 331	 321
  21	 474	 464
  22	 276	 266
  23	 280	 270
  24	 380	 370
  25	 290	 280
  26	 360	 350
  27	 462	 452
  28	 282	 272
  29	 286	 276
  30	 456	 446
  31	 279	 269
  32	 295	 285
  33	 457	 447
  34	 277	 267
  35	 296	 286
  36	 440	 430
  37	 266	 256
  38	 324	 314
  39	 475	 465
  40	 273	 263
  41	 282	 272
  42	 483	 473
  43	 269	 259
  44	 278	 268
  45	 419	 409
  46	 298	 288
  47	 313	 303
  48	 509	 499
  49	 260	 250
  50	 261	 251
  51	 493	 483
  52	 262	 252
  53	 275	 265
  54	 394	 384
  55	 293	 283
  56	 343	 333
  57	 494	 484
  58	 261	 251
  59	 275	 265
  60	 491	 481
  61	 267	 257
  62	 272	 262
  63	 411	 401
  64	 308	 298
  65	 311	 301
  66	 406	 396
  67	 299	 289
  68	 325	 315
  69	 392	 382
  70	 260	 250
  71	 378	 368
  72	 420	 410
  73	 266	 256
  74	 344	 334
  75	 507	 497
  76	 260	 250
  77	 263	 253
  78	 369	 359
  79	 327	 317
  80	 334	 324
  81	 434	 424
  82	 261	 251
  83	 335	 325
  84	 367	 357
  85	 316	 306
  86	 347	 337
  87	 406	 396
  88	 264	 254
  89	 360	 350
  90	 479	 469
  91	 268	 258
  92	 283	 273
  93	 401	 391
  94	 284	 274
  95	 345	 335
  96	 436	 426
  97	 288	 278
  98	 306	 296
  99	 444	 434
 100	 278	 268
 101	 308	 298
 102	 501	 491
 103	 261	 251
 104	 268	 258
 105	 470	 460
 106	 271	 261
 107	 289	 279
 108	 413	 403
 109	 299	 289
 110	 318	 308
 111	 446	 436
 112	 276	 266
 113	 308	 298
 114	 360	 350
 115	 332	 322
 116	 338	 328
 117	 429	 419
 118	 279	 269
 119	 322	 312
;

set E :=
   0	   2
   0	   3
   0	   4
   0	   5
   0	   6
   0	  10
   0	  25
   0	  31
   0	  32
   0	  39
   0	  40
   0	  41
   0	  44
   0	  45
   0	  46
   0	  47
   0	  48
   0	  55
   0	  57
   0	  58
   0	  59
   0	  60
   0	  64
   0	  68
   0	  70
   0	  72
   0	  77
   0	  87
   0	  93
   0	  94
   0	  98
   0	 101
   0	 106
   0	 107
   0	 108
   0	 115
   0	 116
   0	 117
   1	   3
   1	   7
   1	   9
   1	  11
   1	  13
   1	  16
   1	  25
   1	  27
   1	  31
   1	  34
   1	  38
   1	  39
   1	  42
   1	  43
   1	  46
   1	  47
   1	  49
   1	  50
   1	  52
   1	  56
   1	  58
   1	  62
   1	  65
   1	  73
   1	  75
   1	  78
   1	  80
   1	  87
   1	  93
   1	  94
   1	  98
   1	 109
   1	 113
   1	 115
   1	 118
   2	   4
   2	   5
   2	  11
   2	  15
   2	  25
   2	  29
   2	  31
   2	  32
   2	  43
   2	  53
   2	  55
   2	  56
   2	  57
   2	  61
   2	  69
   2	  70
   2	  72
   2	  73
   2	  74
   2	  78
   2	  86
   2	  96
   2	 100
   2	 105
   2	 108
   2	 111
   2	 117
   2	 118
   3	   6
   3	   9
   3	  12
   3	  19
   3	  22
   3	  28
   3	  31
   3	  39
   3	  41
   3	  42
   3	  44
   3	  62
   3	  67
   3	  71
   3	  72
   3	  82
   3	  85
   3	  88
   3	 102
   3	 103
   3	 104
   3	 105
   3	 106
   3	 113
   3	 115
   3	 116
   4	   8
   4	  16
   4	  20
   4	  26
   4	  31
   4	  35
   4	  38
   4	  41
   4	  42
   4	  48
   4	  53
   4	  54
   4	  58
   4	  61
   4	  68
   4	  70
   4	  72
   4	  76
   4	  78
   4	  82
   4	  90
   4	  93
   4	  94
   4	  95
   4	  96
   4	  99
   4	 103
   4	 105
   4	 107
   4	 110
   4	 111
   4	 113
   4	 114
   5	   6
   5	  11
   5	  12
   5	  16
   5	  19
   5	  21
   5	  22
   5	  24
   5	  26
   5	  28
   5	  29
   5	  30
   5	  32
   5	  39
   5	  40
   5	  41
   5	  42
   5	  46
   5	  48
   5	  49
   5	  64
   5	  65
   5	  69
   5	  70
   5	  74
   5	  78
   5	  80
   5	  85
   5	  87
   5	  90
   5	  91
   5	  96
   5	  98
   5	 100
   5	 101
   5	 107
   5	 118
   6	  10
   6	  13
   6	  18
   6	  21
   6	  22
   6	  23
   6	  24
   6	  30
   6	  31
   6	  32
   6	  36
   6	  38
   6	  40
   6	  44
   6	  48
   6	  49
   6	  50
   6	  56
   6	  57
   6	  62
   6	  66
   6	  77
   6	  79
   6	  85
   6	  86
   6	  88
   6	  89
   6	  91
   6	  93
   6	  99
   6	 105
   6	 106
   6	 107
   6	 108
   6	 115
   6	 116
   7	   8
   7	   9
   7	  10
   7	  12
   7	  15
   7	  23
   7	  30
   7	  36
   7	  41
   7	  45
   7	  50
   7	  52
   7	  53
   7	  58
   7	  59
   7	  61
   7	  62
   7	  66
   7	  68
   7	  69
   7	  72
   7	  74
   7	  76
   7	  78
   7	  79
   7	  80
   7	  84
   7	  86
   7	  89
   7	  90
   7	  91
   7	  92
   7	  93
   7	  95
   7	 100
   7	 101
   7	 105
   7	 108
   7	 112
   8	   9
   8	  14
   8	  16
   8	  17
   8	  19
   8	  21
   8	  30
   8	  31
   8	  33
   8	  36
   8	  37
   8	  45
   8	  47
   8	  49
   8	  53
   8	  58
   8	  60
   8	  62
   8	  65
   8	  73
   8	  75
   8	  77
   8	  81
   8	  83
   8	  98
   8	  99
   8	 100
   8	 102
   8	 105
   8	 108
   8	 115
   9	  14
   9	  20
   9	  28
   9	  32
   9	  38
   9	  43
   9	  45
   9	  52
   9	  63
   9	  64
   9	  65
   9	  68
   9	  92
   9	  93
   9	  94
   9	  96
   9	  97
   9	 101
   9	 105
   9	 109
   9	 112
   9	 116
   9	 119
  10	  11
  10	  13
  10	  16
  10	  17
  10	  23
  10	  28
  10	  31
  10	  36
  10	  42
  10	  43
  10	  47
  10	  49
  10	  55
  10	  56
  10	  59
  10	  61
  10	  63
  10	  68
  10	  82
  10	  84
  10	  86
  10	  90
  10	  94
  10	  99
  10	 100
  10	 101
  10	 102
  10	 103
  10	 105
  10	 113
  10	 114
  10	 118
  10	 119
  11	  12
  11	  17
  11	  18
  11	  21
  11	  22
  11	  25
  11	  26
  11	  27
  11	  32
  11	  33
  11	  36
  11	  42
  11	  46
  11	  47
  11	  52
  11	  54
  11	  58
  11	  59
  11	  66
  11	  69
  11	  71
  11	  77
  11	  79
  11	  83
  11	  84
  11	  86
  11	  89
  11	  91
  11	  93
  11	  96
  11	  98
  11	  99
  11	 100
  11	 103
  11	 105
  11	 108
  11	 116
  11	 118
  11	 119
  12	  14
  12	  15
  12	  17
  12	  18
  12	  30
  12	  31
  12	  42
  12	  43
  12	  47
  12	  48
  12	  52
  12	  63
  12	  68
  12	  69
  12	  71
  12	  74
  12	  75
  12	  81
  12	  83
  12	  84
  12	  85
  12	  88
  12	  92
  12	  94
  12	  97
  12	 101
  12	 103
  12	 105
  12	 107
  12	 109
  12	 112
  12	 117
  13	  14
  13	  17
  13	  19
  13	  20
  13	  26
  13	  29
  13	  31
  13	  34
  13	  37
  13	  40
  13	  43
  13	  44
  13	  49
  13	  51
  13	  54
  13	  67
  13	  71
  13	  72
  13	  74
  13	  76
  13	  78
  13	  79
  13	  82
  13	  86
  13	  90
  13	  92
  13	  93
  13	  94
  13	  95
  13	 103
  13	 105
  13	 106
  13	 107
  13	 109
  13	 110
  13	 118
  14	  16
  14	  17
  14	  18
  14	  25
  14	  26
  14	  28
  14	  29
  14	  30
  14	  32
  14	  37
  14	  38
  14	  40
  14	  43
  14	  45
  14	  50
  14	  56
  14	  57
  14	  61
  14	  64
  14	  67
  14	  73
  14	  79
  14	  82
  14	  85
  14	  90
  14	  91
  14	  95
  14	 105
  14	 106
  14	 107
  14	 117
  14	 118
  15	  21
  15	  25
  15	  36
  15	  40
  15	  42
  15	  43
  15	  46
  15	  47
  15	  49
  15	  59
  15	  62
  15	  63
  15	  64
  15	  67
  15	  68
  15	  71
  15	  78
  15	  79
  15	  80
  15	  84
  15	  86
  15	  90
  15	  95
  15	  99
  15	 102
  15	 104
  15	 105
  15	 107
  15	 115
  15	 119
  16	  18
  16	  22
  16	  24
  16	  27
  16	  33
  16	  34
  16	  35
  16	  36
  16	  41
  16	  45
  16	  46
  16	  48
  16	  51
  16	  54
  16	  55
  16	  60
  16	  61
  16	  63
  16	  78
  16	  82
  16	  84
  16	  87
  16	  92
  16	  99
  16	 105
  16	 110
  16	 115
  16	 119
  17	  23
  17	  25
  17	  27
  17	  30
  17	  33
  17	  34
  17	  36
  17	  39
  17	  40
  17	  54
  17	  56
  17	  57
  17	  61
  17	  63
  17	  66
  17	  68
  17	  71
  17	  73
  17	  75
  17	  76
  17	  83
  17	  90
  17	  96
  17	 100
  17	 107
  17	 108
  17	 110
  17	 119
  18	  20
  18	  23
  18	  27
  18	  28
  18	  29
  18	  33
  18	  36
  18	  45
  18	  52
  18	  53
  18	  64
  18	  67
  18	  69
  18	  74
  18	  76
  18	  81
  18	  84
  18	  86
  18	  88
  18	  89
  18	  91
  18	  92
  18	  94
  18	 104
  18	 108
  18	 111
  18	 112
  19	  23
  19	  24
  19	  28
  19	  29
  19	  30
  19	  33
  19	  35
  19	  36
  19	  38
  19	  41
  19	  44
  19	  46
  19	  47
  19	  52
  19	  55
  19	  56
  19	  64
  19	  68
  19	  70
  19	  73
  19	  74
  19	  76
  19	  77
  19	  78
  19	  81
  19	  82
  19	  83
  19	  92
  19	  93
  19	  95
  19	  97
  19	 102
  19	 103
  19	 106
  19	 107
  19	 108
  19	 109
  19	 110
  19	 113
  19	 114
  19	 116
  19	 119
  20	  21
  20	  23
  20	  24
  20	  25
  20	  26
  20	  27
  20	  28
  20	  31
  20	  32
  20	  34
  20	  38
  20	  45
  20	  48
  20	  52
  20	  58
  20	  63
  20	  67
  20	  70
  20	  78
  20	  81
  20	  82
  20	  83
  20	  84
  20	  85
  20	  87
  20	  91
  20	  92
  20	  93
  20	  95
  20	 113
  20	 114
  20	 116
  20	 119
  21	  22
  21	  25
  21	  26
  21	  32
  21	  40
  21	  42
  21	  47
  21	  55
  21	  58
  21	  59
  21	  63
  21	  64
  21	  67
  21	  68
  21	  72
  21	  76
  21	  82
  21	  83
  21	  85
  21	  92
  21	  96
  21	 100
  21	 101
  21	 108
  21	 111
  21	 114
  21	 115
  22	  32
  22	  33
  22	  34
  22	  35
  22	  37
  22	  41
  22	  43
  22	  46
  22	  51
  22	  57
  22	  60
  22	  62
  22	  63
  22	  70
  22	  72
  22	  73
  22	  74
  22	  83
  22	  92
  22	  96
  22	 105
  22	 106
  22	 112
  22	 117
  22	 118
  23	  24
  23	  27
  23	  30
  23	  31
  23	  36
  23	  37
  23	  38
  23	  39
  23	  41
  23	  44
  23	  45
  23	  50
  23	  53
  23	  57
  23	  61
  23	  64
  23	  65
  23	  70
  23	  85
  23	  86
  23	  89
  23	  92
  23	  94
  23	  96
  23	  98
  23	 101
  23	 102
  23	 104
  23	 105
  23	 106
  23	 108
  23	 110
  23	 115
  23	 117
  24	  32
  24	  33
  24	  36
  24	  38
  24	  39
  24	  43
  24	  44
  24	  46
  24	  48
  24	  49
  24	  50
  24	  52
  24	  57
  24	  58
  24	  64
  24	  67
  24	  70
  24	  73
  24	  75
  24	  76
  24	  77
  24	  81
  24	  83
  24	  84
  24	  87
  24	  90
  24	  97
  24	 101
  24	 106
  24	 108
  24	 111
  24	 114
  24	 115
  25	  28
  25	  29
  25	  33
  25	  35
  25	  39
  25	  42
  25	  43
  25	  44
  25	  48
  25	  54
  25	  56
  25	  57
  25	  61
  25	  63
  25	  65
  25	  66
  25	  67
  25	  76
  25	  79
  25	  84
  25	  88
  25	  92
  25	  96
  25	  99
  25	 104
  25	 105
  25	 107
  25	 111
  25	 114
  25	 117
  25	 119
  26	  30
  26	  35
  26	  38
  26	  39
  26	  40
  26	  43
  26	  45
  26	  46
  26	  47
  26	  53
  26	  55
  26	  60
  26	  62
  26	  70
  26	  72
  26	  77
  26	  78
  26	  80
  26	  83
  26	  89
  26	  90
  26	  94
  26	  99
  26	 101
  26	 106
  26	 110
  26	 111
  26	 113
  26	 115
  26	 118
  27	  34
  27	  35
  27	  36
  27	  39
  27	  40
  27	  42
  27	  44
  27	  48
  27	  49
  27	  50
  27	  56
  27	  62
  27	  70
  27	  80
  27	  84
  27	  88
  27	  89
  27	  90
  27	  94
  27	  95
  27	  96
  27	  97
  27	  98
  27	 100
  27	 103
  27	 109
  27	 112
  27	 113
  27	 115
  28	  30
  28	  32
  28	  36
  28	  37
  28	  47
  28	  50
  28	  51
  28	  53
  28	  55
  28	  57
  28	  60
  28	  70
  28	  71
  28	  73
  28	  82
  28	  83
  28	  84
  28	  90
  28	  93
  28	  97
  28	 106
  28	 108
  28	 113
  29	  33
  29	  38
  29	  44
  29	  45
  29	  47
  29	  51
  29	  52
  29	  53
  29	  56
  29	  57
  29	  58
  29	  61
  29	  62
  29	  63
  29	  66
  29	  68
  29	  71
  29	  72
  29	  79
  29	  84
  29	  86
  29	  89
  29	  91
  29	  92
  29	  94
  29	  97
  29	 101
  29	 103
  29	 105
  29	 106
  29	 107
  29	 115
  29	 117
  30	  35
  30	  38
  30	  39
  30	  42
  30	  44
  30	  45
  30	  48
  30	  50
  30	  51
  30	  57
  30	  58
  30	  59
  30	  62
  30	  67
  30	  71
  30	  73
  30	  74
  30	  76
  30	  79
  30	  82
  30	  84
  30	  86
  30	  90
  30	  91
  30	  93
  30	  94
  30	  98
  30	  99
  30	 102
  30	 104
  30	 107
  30	 114
  31	  33
  31	  41
  31	  56
  31	  57
  31	  59
  31	  63
  31	  66
  31	  67
  31	  68
  31	  72
  31	  75
  31	  78
  31	  84
  31	  85
  31	  90
  31	  91
  31	  95
  31	  99
  31	 100
  31	 104
  31	 105
  31	 106
  31	 109
  31	 112
  31	 114
  31	 117
  32	  33
  32	  39
  32	  40
  32	  41
  32	  42
  32	  45
  32	  48
  32	  49
  32	  57
  32	  58
  32	  66
  32	  67
  32	  69
  32	  72
  32	  74
  32	  77
  32	  78
  32	  80
  32	  87
  32	  89
  32	  93
  32	  98
  32	 107
  32	 108
  32	 109
  32	 116
  32	 118
  33	  35
  33	  38
  33	  44
  33	  46
  33	  47
  33	  55
  33	  56
  33	  63
  33	  65
  33	  67
  33	  68
  33	  73
  33	  75
  33	  81
  33	  82
  33	  91
  33	  97
  33	  98
  33	 100
  33	 102
  33	 103
  33	 104
  33	 110
  33	 111
  33	 115
  33	 119
  34	  35
  34	  36
  34	  40
  34	  43
  34	  47
  34	  48
  34	  52
  34	  54
  34	  61
  34	  64
  34	  68
  34	  70
  34	  71
  34	  73
  34	  75
  34	  78
  34	  80
  34	  82
  34	  85
  34	  90
  34	  91
  34	  93
  34	  94
  34	  98
  34	 103
  34	 106
  34	 108
  34	 112
  34	 118
  34	 119
  35	  36
  35	  39
  35	  45
  35	  46
  35	  47
  35	  51
  35	  66
  35	  76
  35	  79
  35	  81
  35	  82
  35	  84
  35	  90
  35	  91
  35	  94
  35	  95
  35	  96
  35	  98
  35	 101
  35	 104
  35	 106
  35	 113
  35	 114
  35	 115
  35	 116
  35	 117
  35	 118
  35	 119
  36	  37
  36	  38
  36	  47
  36	  50
  36	  58
  36	  59
  36	  61
  36	  64
  36	  66
  36	  68
  36	  73
  36	  80
  36	  81
  36	  82
  36	  83
  36	  88
  36	  90
  36	  91
  36	  92
  36	 104
  36	 106
  36	 110
  36	 111
  36	 113
  37	  43
  37	  45
  37	  48
  37	  50
  37	  56
  37	  58
  37	  60
  37	  62
  37	  65
  37	  67
  37	  68
  37	  69
  37	  72
  37	  84
  37	  85
  37	  92
  37	  93
  37	  94
  37	  96
  37	 104
  37	 106
  37	 107
  37	 108
  37	 110
  37	 112
  37	 113
  37	 116
  37	 117
  38	  41
  38	  45
  38	  47
  38	  52
  38	  61
  38	  63
  38	  65
  38	  66
  38	  70
  38	  74
  38	  91
  38	  92
  38	  93
  38	  95
  38	  98
  38	 102
  38	 116
  38	 118
  39	  40
  39	  45
  39	  48
  39	  49
  39	  52
  39	  56
  39	  63
  39	  64
  39	  66
  39	  72
  39	  76
  39	  80
  39	  81
  39	  85
  39	  87
  39	  90
  39	  92
  39	  97
  39	 101
  39	 103
  39	 108
  39	 112
  39	 115
  39	 117
  40	  44
  40	  46
  40	  50
  40	  53
  40	  56
  40	  60
  40	  66
  40	  70
  40	  73
  40	  76
  40	  79
  40	  80
  40	  81
  40	  85
  40	  91
  40	  92
  40	  95
  40	  96
  40	  98
  40	 105
  40	 106
  40	 109
  40	 110
  40	 113
  40	 115
  41	  43
  41	  45
  41	  46
  41	  48
  41	  49
  41	  51
  41	  52
  41	  53
  41	  54
  41	  57
  41	  58
  41	  61
  41	  62
  41	  69
  41	  72
  41	  73
  41	  74
  41	  75
  41	  77
  41	  81
  41	  82
  41	  88
  41	  89
  41	  99
  41	 104
  41	 106
  41	 108
  42	  51
  42	  53
  42	  54
  42	  55
  42	  62
  42	  64
  42	  65
  42	  72
  42	  73
  42	  74
  42	  79
  42	  80
  42	  81
  42	  83
  42	  85
  42	  89
  42	 102
  42	 104
  42	 105
  42	 116
  42	 119
  43	  49
  43	  51
  43	  52
  43	  53
  43	  56
  43	  61
  43	  62
  43	  66
  43	  67
  43	  68
  43	  72
  43	  81
  43	  84
  43	  85
  43	  88
  43	  89
  43	  90
  43	  93
  43	  96
  43	  97
  43	  98
  43	  99
  43	 103
  43	 108
  43	 109
  43	 116
  43	 117
  44	  47
  44	  57
  44	  58
  44	  64
  44	  65
  44	  67
  44	  69
  44	  70
  44	  73
  44	  74
  44	  75
  44	  83
  44	  90
  44	  93
  44	  95
  44	 102
  44	 105
  44	 107
  44	 113
  44	 114
  44	 118
  45	  46
  45	  48
  45	  54
  45	  57
  45	  62
  45	  63
  45	  64
  45	  70
  45	  74
  45	  75
  45	  76
  45	  81
  45	  89
  45	  92
  45	  93
  45	 101
  45	 107
  45	 110
  45	 112
  45	 115
  46	  47
  46	  49
  46	  50
  46	  53
  46	  60
  46	  65
  46	  68
  46	  72
  46	  75
  46	  82
  46	  85
  46	  86
  46	  88
  46	  93
  46	  94
  46	 100
  46	 103
  46	 104
  46	 106
  46	 112
  46	 114
  46	 117
  47	  60
  47	  66
  47	  71
  47	  74
  47	  75
  47	  76
  47	  81
  47	  82
  47	  89
  47	  90
  47	  91
  47	  92
  47	  96
  47	 101
  47	 111
  47	 113
  47	 116
  48	  50
  48	  58
  48	  67
  48	  68
  48	  72
  48	  77
  48	  80
  48	  82
  48	  89
  48	  99
  48	 101
  48	 111
  48	 117
  48	 119
  49	  51
  49	  52
  49	  54
  49	  58
  49	  61
  49	  63
  49	  66
  49	  67
  49	  70
  49	  78
  49	  81
  49	  82
  49	  86
  49	  91
  49	  94
  49	  96
  49	  97
  49	 102
  49	 108
  49	 109
  49	 112
  49	 114
  49	 116
  49	 117
  50	  51
  50	  54
  50	  58
  50	  59
  50	  69
  50	  76
  50	  78
  50	  83
  50	  84
  50	  87
  50	  89
  50	  90
  50	  94
  50	 107
  50	 111
  51	  52
  51	  57
  51	  59
  51	  67
  51	  68
  51	  69
  51	  72
  51	  74
  51	  78
  51	  80
  51	  82
  51	  84
  51	  85
  51	  91
  51	  94
  51	 101
  51	 102
  51	 103
  51	 104
  51	 109
  51	 116
  52	  55
  52	  58
  52	  62
  52	  63
  52	  69
  52	  71
  52	  74
  52	  77
  52	  79
  52	  83
  52	  85
  52	  87
  52	  89
  52	  90
  52	  91
  52	  94
  52	 100
  52	 104
  52	 114
  52	 118
  52	 119
  53	  54
  53	  57
  53	  61
  53	  62
  53	  63
  53	  68
  53	  76
  53	  78
  53	  81
  53	  90
  53	  93
  53	  94
  53	 104
  53	 108
  53	 112
  53	 113
  53	 115
  53	 118
  53	 119
  54	  63
  54	  65
  54	  68
  54	  76
  54	  79
  54	  80
  54	  82
  54	  83
  54	  86
  54	  95
  54	  96
  54	 100
  54	 102
  54	 110
  54	 115
  54	 117
  55	  58
  55	  59
  55	  66
  55	  73
  55	  74
  55	  75
  55	  77
  55	  92
  55	  95
  55	  98
  55	  99
  55	 100
  55	 108
  55	 111
  55	 112
  55	 115
  56	  57
  56	  58
  56	  59
  56	  65
  56	  71
  56	  72
  56	  76
  56	  80
  56	  84
  56	  91
  56	  94
  56	  95
  56	 101
  56	 102
  56	 104
  56	 108
  56	 111
  56	 114
  56	 118
  56	 119
  57	  59
  57	  61
  57	  68
  57	  75
  57	  77
  57	  78
  57	  79
  57	  80
  57	  83
  57	  93
  57	  97
  57	  98
  57	 101
  57	 103
  57	 104
  57	 105
  57	 118
  58	  66
  58	  70
  58	  77
  58	  80
  58	  84
  58	  87
  58	  90
  58	  93
  58	  98
  58	 102
  58	 104
  58	 108
  58	 109
  58	 110
  58	 111
  58	 112
  59	  62
  59	  67
  59	  68
  59	  70
  59	  74
  59	  76
  59	  84
  59	  85
  59	  86
  59	  87
  59	  89
  59	  91
  59	  92
  59	  94
  59	  96
  59	  98
  59	 103
  59	 105
  59	 107
  59	 108
  59	 110
  59	 111
  59	 114
  59	 117
  59	 118
  60	  62
  60	  66
  60	  70
  60	  73
  60	  75
  60	  79
  60	  80
  60	  84
  60	  86
  60	  90
  60	  99
  60	 100
  60	 117
  61	  65
  61	  66
  61	  68
  61	  72
  61	  74
  61	  82
  61	  83
  61	  87
  61	  88
  61	  89
  61	  92
  61	  94
  61	  97
  61	  98
  61	 104
  61	 106
  61	 107
  61	 108
  61	 110
  61	 112
  61	 114
  61	 115
  61	 116
  61	 117
  61	 118
  62	  68
  62	  70
  62	  73
  62	  77
  62	  85
  62	  86
  62	  89
  62	  90
  62	  92
  62	  97
  62	  98
  62	  99
  62	 100
  62	 114
  62	 115
  62	 117
  62	 118
  63	  68
  63	  69
  63	  74
  63	  78
  63	  86
  63	  89
  63	  90
  63	  93
  63	  98
  63	  99
  63	 107
  63	 111
  63	 114
  63	 116
  64	  68
  64	  70
  64	  77
  64	  78
  64	  82
  64	  94
  64	  95
  64	  96
  64	  98
  64	 101
  64	 104
  64	 107
  64	 114
  65	  67
  65	  68
  65	  70
  65	  72
  65	  80
  65	  86
  65	  91
  65	  93
  65	 102
  65	 106
  65	 109
  65	 112
  65	 115
  65	 116
  65	 117
  66	  72
  66	  73
  66	  74
  66	  75
  66	  78
  66	  83
  66	  90
  66	  92
  66	  94
  66	  97
  66	 101
  66	 107
  66	 109
  66	 113
  67	  68
  67	  71
  67	  73
  67	  82
  67	  83
  67	  86
  67	  96
  67	  98
  67	  99
  67	 102
  67	 103
  67	 107
  67	 108
  67	 109
  67	 113
  67	 118
  68	  69
  68	  73
  68	  79
  68	  82
  68	  85
  68	  86
  68	  87
  68	  92
  68	  99
  68	 102
  68	 108
  68	 111
  68	 113
  68	 116
  68	 117
  68	 118
  69	  70
  69	  76
  69	  77
  69	  79
  69	  80
  69	  86
  69	  92
  69	  98
  69	 104
  69	 109
  70	  78
  70	  82
  70	  83
  70	  95
  70	 103
  70	 105
  70	 106
  70	 109
  70	 111
  70	 112
  70	 116
  71	  72
  71	  78
  71	  84
  71	  86
  71	  87
  71	  89
  71	  92
  71	  93
  71	  95
  71	  97
  71	  98
  71	 102
  71	 104
  71	 106
  71	 119
  72	  74
  72	  77
  72	  78
  72	  80
  72	  81
  72	  82
  72	  84
  72	  96
  72	  97
  72	  98
  72	 100
  72	 104
  72	 106
  72	 108
  72	 111
  72	 115
  72	 116
  72	 119
  73	  74
  73	  76
  73	  78
  73	  85
  73	  86
  73	  89
  73	  92
  73	  93
  73	  95
  73	  99
  73	 100
  73	 103
  73	 104
  73	 109
  73	 114
  74	  75
  74	  77
  74	  78
  74	  81
  74	  82
  74	  83
  74	  85
  74	  86
  74	  88
  74	  91
  74	  93
  74	 100
  74	 103
  74	 105
  75	  86
  75	  93
  75	  94
  75	  99
  75	 100
  75	 101
  75	 106
  75	 107
  75	 108
  75	 111
  75	 114
  75	 117
  75	 119
  76	  78
  76	  80
  76	  88
  76	  89
  76	  95
  76	  97
  76	  98
  76	  99
  76	 100
  76	 101
  76	 102
  76	 104
  76	 105
  76	 111
  76	 114
  76	 116
  77	  84
  77	  89
  77	  93
  77	  94
  77	  99
  77	 100
  77	 105
  77	 113
  78	  81
  78	  83
  78	  85
  78	  87
  78	  89
  78	  90
  78	  91
  78	  93
  78	  96
  78	  97
  78	  98
  78	 100
  78	 103
  78	 107
  78	 108
  78	 111
  78	 112
  78	 113
  78	 118
  79	  86
  79	  93
  79	  94
  79	 104
  79	 107
  79	 108
  79	 112
  79	 113
  79	 117
  79	 118
  80	  84
  80	  86
  80	  90
  80	  91
  80	  92
  80	  97
  80	 102
  80	 104
  80	 106
  80	 107
  80	 110
  80	 111
  80	 116
  80	 117
  81	  85
  81	  88
  81	  89
  81	  92
  81	  98
  81	 100
  81	 104
  81	 106
  81	 108
  81	 110
  81	 115
  82	  87
  82	  93
  82	  95
  82	  99
  82	 104
  82	 108
  82	 110
  82	 112
  82	 119
  83	  85
  83	  90
  83	  91
  83	  95
  83	  97
  83	 101
  83	 107
  83	 112
  83	 113
  83	 114
  83	 115
  83	 116
  83	 118
  84	  87
  84	  90
  84	  92
  84	  95
  84	  98
  84	 100
  84	 102
  84	 104
  84	 109
  84	 115
  84	 118
  85	  87
  85	  89
  85	  92
  85	  98
  85	  99
  85	 105
  85	 107
  85	 108
  85	 109
  85	 111
  86	  87
  86	  89
  86	  91
  86	  94
  86	  97
  86	  98
  86	 103
  86	 105
  86	 110
  86	 112
  86	 113
  87	  94
  87	  96
  87	  98
  87	 100
  87	 111
  87	 112
  87	 114
  87	 116
  87	 118
  87	 119
  88	  91
  88	  95
  88	 101
  88	 106
  88	 108
  88	 109
  88	 112
  88	 114
  88	 119
  89	  92
  89	  94
  89	  97
  89	  99
  89	 103
  89	 105
  89	 109
  89	 110
  89	 112
  89	 113
  89	 115
  89	 118
  90	  91
  90	  95
  90	 107
  90	 108
  90	 110
  90	 111
  90	 116
  90	 117
  90	 119
  91	  93
  91	  95
  91	  96
  91	  97
  91	  99
  91	 101
  91	 103
  91	 108
  91	 111
  91	 112
  91	 117
  92	  98
  92	 104
  92	 105
  92	 106
  92	 109
  92	 112
  92	 114
  92	 115
  92	 116
  92	 118
  92	 119
  93	  94
  93	  97
  93	  98
  93	 100
  93	 101
  93	 103
  93	 104
  93	 108
  93	 113
  93	 114
  93	 115
  93	 117
  93	 118
  93	 119
  94	  97
  94	 103
  94	 106
  94	 109
  94	 111
  94	 113
  94	 114
  95	  97
  95	  98
  95	 104
  95	 105
  95	 108
  95	 109
  95	 115
  95	 117
  95	 119
  96	  99
  96	 101
  96	 102
  96	 103
  96	 111
  96	 116
  97	 100
  97	 102
  97	 104
  97	 106
  97	 108
  97	 109
  98	 100
  98	 104
  98	 111
  98	 113
  98	 119
  99	 100
  99	 102
  99	 103
  99	 111
  99	 112
  99	 119
 100	 101
 100	 106
 100	 116
 100	 119
 101	 108
 101	 111
 101	 112
 101	 113
 101	 116
 101	 117
 102	 104
 102	 107
 102	 109
 102	 110
 102	 113
 102	 117
 103	 105
 103	 107
 103	 113
 103	 114
 103	 115
 103	 117
 104	 106
 104	 107
 104	 116
 105	 110
 105	 113
 105	 115
 105	 116
 105	 119
 106	 108
 106	 110
 106	 114
 106	 116
 107	 108
 107	 111
 108	 109
 108	 110
 108	 119
 109	 114
 109	 118
 110	 112
 110	 113
 110	 115
 111	 116
 111	 117
 111	 118
 112	 114
 112	 118
 113	 114
 113	 116
 114	 117
 114	 118
 115	 116
 115	 119
 116	 117
;
